data/solutions/recovery/wellformed/moderate/flexible/wellformed_moderate_instance89/53.sol
Elapsed time: 12.08
Upper bound: 7245.0
Planning weighted value: 437643.0
C[0]=7245.0
C[1]=7243.0
C[2]=7238.0
C[3]=7220.0
C[4]=7219.0
C[5]=7198.0
y[0]=3
y[1]=0
y[2]=3
y[3]=0
y[4]=4
y[5]=2
y[6]=2
y[7]=1
y[8]=5
y[9]=3
y[10]=2
y[11]=2
y[12]=5
y[13]=0
y[14]=3
y[15]=1
y[16]=1
y[17]=3
y[18]=5
y[19]=0
y[20]=3
y[21]=5
y[22]=5
y[23]=2
y[24]=1
y[25]=1
y[26]=1
y[27]=4
y[28]=5
y[29]=2
y[30]=3
y[31]=4
y[32]=0
y[33]=2
y[34]=4
y[35]=5
y[36]=0
y[37]=0
y[38]=0
y[39]=5
y[40]=4
y[41]=4
