data/solutions/recovery/wellformed/moderate/flexible/wellformed_moderate_instance89/53.log

Log started (V12.6.3.0) Fri Apr 20 19:37:02 2018

New value for default parallel thread count: 1

Problem '/tmp/tmpmQjjjj.pyomo.lp' read.
Read time = 0.00 sec. (0.13 ticks)

Problem name         : /tmp/tmpmQjjjj.pyomo.lp
Objective sense      : Minimize
Variables            :     260  [Nneg: 1,  Binary: 252,  General Integer: 7]
Objective nonzeros   :       1
Linear constraints   :      97  [Less: 48,  Equal: 49]
  Nonzeros           :    8917
  RHS nonzeros       :      85

Variables            : Min LB: 0.000000         Max UB: 1.000000       
Objective nonzeros   : Min   : 1.000000         Max   : 1.000000       
Linear constraints   :
  Nonzeros           : Min   : 1.000000         Max   : 1980.000       
  RHS nonzeros       : Min   : 1.000000         Max   : 5.000000       
Tried aggregator 2 times.
MIP Presolve eliminated 42 rows and 6 columns.
Aggregator did 7 substitutions.
Reduced MIP has 48 rows, 247 columns, and 693 nonzeros.
Reduced MIP has 246 binaries, 1 generals, 0 SOSs, and 0 indicators.
Presolve time = 0.00 sec. (2.20 ticks)
Found incumbent of value 43363.000000 after 0.00 sec. (2.69 ticks)
Probing time = 0.00 sec. (0.26 ticks)
Cover probing fixed 0 vars, tightened 4 bounds.
Tried aggregator 1 time.
Reduced MIP has 48 rows, 247 columns, and 693 nonzeros.
Reduced MIP has 246 binaries, 1 generals, 0 SOSs, and 0 indicators.
Presolve time = 0.00 sec. (0.41 ticks)
Probing time = 0.00 sec. (0.18 ticks)
Clique table members: 41.
MIP emphasis: balance optimality and feasibility.
MIP search method: dynamic search.
Parallel mode: none, using 1 thread.
Root relaxation solution time = 0.00 sec. (0.20 ticks)

        Nodes                                         Cuts/
   Node  Left     Objective  IInf  Best Integer    Best Bound    ItCnt     Gap

*     0+    0                        43363.0000     1980.0000            95.43%
      0     0     7227.1667     9    43363.0000     7227.1667       10   83.33%
*     0+    0                         8554.0000     7227.1667            15.51%
      0     0     7228.0000    10     8554.0000      Fract: 7       30   15.50%
*     0+    0                         7945.0000     7228.0000             9.02%
      0     0     7228.0000    16     7945.0000      Cuts: 12       56    9.02%
*     0+    0                         7925.0000     7228.0000             8.79%
      0     0     7228.0000    17     7925.0000       Cuts: 7       84    8.79%
*     0+    0                         7677.0000     7228.0000             5.85%
*     0+    0                         7584.0000     7228.0000             4.69%
      0     2     7228.0000    12     7584.0000     7228.0000       84    4.69%
Elapsed time = 0.02 sec. (14.95 ticks, tree = 0.01 MB, solutions = 6)
*    10+    8                         7527.0000     7228.0000             3.97%
*    30+   13                         7483.0000     7228.0000             3.41%
*    34    13      integral     0     7479.0000     7228.0000      245    3.36%
*    80+   45                         7469.0000     7228.0000             3.23%
*    85    44      integral     0     7403.0000     7228.0000      469    2.36%
*   380+  124                         7355.0000     7228.0000             1.73%
*   491+  208                         7326.0000     7228.0000             1.34%
*   492+  140                         7276.0000     7228.0000             0.66%
*   592+   97                         7274.0000     7228.0000             0.63%
*   692+   86                         7268.0000     7228.0000             0.55%
*   792+  122                         7262.0000     7228.0000             0.47%
    865   153     7241.3404    25     7262.0000     7228.0000     3878    0.47%
    866   153     7241.8488    25     7262.0000     7228.0000     3880    0.47%
    867   154     7241.8569    23     7262.0000     7228.0000     3885    0.47%
    868   155     7247.5604    23     7262.0000     7228.0000     3895    0.47%
    869   156     7251.8910    18     7262.0000     7228.0000     3905    0.47%
    870   156     7251.9745    18     7262.0000     7228.0000     3909    0.47%
    871   156     7252.5332    20     7262.0000     7228.0000     3912    0.47%
    872   157     7252.5332    20     7262.0000     7228.0000     3914    0.47%
    873   157     7259.1890    17     7262.0000     7228.0000     3920    0.47%
*   992+  227                         7261.0000     7228.0000             0.45%
   1592   628     7244.1132    25     7261.0000     7228.0000    11708    0.45%
Elapsed time = 0.97 sec. (1090.68 ticks, tree = 0.19 MB, solutions = 18)
   3522  1836     7244.7420    34     7261.0000     7228.0000    48092    0.45%
   3523  1837     7249.5349    34     7261.0000     7228.0000    48133    0.45%
   3524  1838     7256.0477    33     7261.0000     7228.0000    48181    0.45%
   3525  1837        cutoff           7261.0000     7228.0000    48193    0.45%
   3526  1836        cutoff           7261.0000     7228.0000    48200    0.45%
   3527  1835        cutoff           7261.0000     7228.0000    48341    0.45%
   3528  1834        cutoff           7261.0000     7228.0000    48478    0.45%
   3529  1835     7228.0493    42     7261.0000     7228.0000    48688    0.45%
   3530  1836     7228.1058    43     7261.0000     7228.0000    48697    0.45%
   3531  1837     7228.9717    44     7261.0000     7228.0000    48739    0.45%
Elapsed time = 1.67 sec. (2061.09 ticks, tree = 0.54 MB, solutions = 18)
*  4492+ 2041                         7252.0000     7228.0000             0.33%
   4611  2097     7233.3529    47     7252.0000     7228.0000    78690    0.33%
   4612  2098     7233.3529    47     7252.0000     7228.0000    78691    0.33%
   4613  2099     7233.3833    47     7252.0000     7228.0000    78694    0.33%
   4614  2100     7233.4347    45     7252.0000     7228.0000    78705    0.33%
   4615  2101     7233.5431    44     7252.0000     7228.0000    78727    0.33%
   4616  2102     7233.5698    43     7252.0000     7228.0000    78736    0.33%
   4617  2103     7234.1638    42     7252.0000     7228.0000    78748    0.33%
   4618  2104     7234.7377    40     7252.0000     7228.0000    78788    0.33%
   4619  2105     7234.9154    43     7252.0000     7228.0000    78797    0.33%
   4620  2106     7234.9186    40     7252.0000     7228.0000    78798    0.33%
Elapsed time = 2.32 sec. (3022.34 ticks, tree = 0.78 MB, solutions = 19)
   5526  2709     7228.0000    46     7252.0000     7228.0000   106421    0.33%
   5527  2710     7228.0000    38     7252.0000     7228.0000   106457    0.33%
   5528  2711     7228.0000    41     7252.0000     7228.0000   106529    0.33%
   5529  2712     7228.0000    40     7252.0000     7228.0000   106532    0.33%
   5530  2713     7228.0000    38     7252.0000     7228.0000   106555    0.33%
   5531  2714     7228.0000    40     7252.0000     7228.0000   106729    0.33%
   5532  2715     7228.0000    42     7252.0000     7228.0000   106908    0.33%
   5533  2716     7228.0000    35     7252.0000     7228.0000   106911    0.33%
   5534  2717     7228.0000    40     7252.0000     7228.0000   106982    0.33%
   5535  2718     7228.0000    34     7252.0000     7228.0000   107002    0.33%
Elapsed time = 2.96 sec. (3998.66 ticks, tree = 0.96 MB, solutions = 19)
   6315  3176     7228.0000    37     7252.0000     7228.0000   133374    0.33%
   6316  3177     7228.0000    36     7252.0000     7228.0000   133376    0.33%
   6317  3178     7228.0000    25     7252.0000     7228.0000   133377    0.33%
   6318  3179     7235.6165    37     7252.0000     7228.0000   133630    0.33%
   6319  3180     7235.6214    36     7252.0000     7228.0000   133632    0.33%
   6320  3181     7241.6656    37     7252.0000     7228.0000   133716    0.33%
   6321  3182     7241.9632    34     7252.0000     7228.0000   133728    0.33%
   6322  3183     7242.8209    31     7252.0000     7228.0000   133750    0.33%
   6323  3184     7242.9932    34     7252.0000     7228.0000   133759    0.33%
   6324  3185     7244.5317    34     7252.0000     7228.0000   133787    0.33%
Elapsed time = 3.60 sec. (4980.22 ticks, tree = 1.26 MB, solutions = 19)
*  6742+ 2565                         7245.0000     7228.0000             0.23%
   7007  2708     7237.2980    41     7245.0000     7228.0000   157876    0.23%
   7008  2709     7237.7662    42     7245.0000     7228.0000   157897    0.23%
   7009  2710     7237.7903    38     7245.0000     7228.0000   157904    0.23%
   7010  2711     7237.8383    37     7245.0000     7228.0000   157907    0.23%
   7011  2712     7237.9777    41     7245.0000     7228.0000   157919    0.23%
   7012  2713     7238.7257    38     7245.0000     7228.0000   157946    0.23%
   7013  2714     7238.7720    39     7245.0000     7228.0000   157955    0.23%
   7014  2715     7239.1690    40     7245.0000     7228.0000   157973    0.23%
   7015  2716     7239.1742    40     7245.0000     7228.0000   157974    0.23%
   7016  2717     7239.1822    40     7245.0000     7228.0000   157975    0.23%
Elapsed time = 4.23 sec. (5949.44 ticks, tree = 1.18 MB, solutions = 20)
   7538  3006     7233.3806    45     7245.0000     7228.0000   179692    0.23%
   7539  3007     7238.1947    40     7245.0000     7228.0000   179765    0.23%
   7540  3008     7238.4921    39     7245.0000     7228.0000   179775    0.23%
   7541  3007        cutoff           7245.0000     7228.0000   179783    0.23%
   7542  3006        cutoff           7245.0000     7228.0000   179788    0.23%
   7543  3005        cutoff           7245.0000     7228.0000   179919    0.23%
   7544  3004        cutoff           7245.0000     7228.0000   180204    0.23%
   7545  3005     7237.6485    40     7245.0000     7228.0000   180378    0.23%
   7546  3006     7237.6486    40     7245.0000     7228.0000   180379    0.23%
   7547  3007     7237.6981    38     7245.0000     7228.0000   180382    0.23%
Elapsed time = 4.85 sec. (6936.13 ticks, tree = 1.36 MB, solutions = 20)
   8063  3319        cutoff           7245.0000     7228.0407   201113    0.23%
   8064  3318        cutoff           7245.0000     7228.0407   201225    0.23%
   8065  3317        cutoff           7245.0000     7228.0593   201315    0.23%
   8066  3318     7232.4961    55     7245.0000     7228.0688   201413    0.23%
   8067  3319     7233.4409    52     7245.0000     7228.0688   201473    0.23%
   8068  3320     7233.4588    55     7245.0000     7228.0688   201478    0.23%
   8069  3321     7233.5072    52     7245.0000     7228.0688   201486    0.23%
   8070  3322     7233.5957    54     7245.0000     7228.0688   201502    0.23%
   8071  3323     7234.2305    50     7245.0000     7228.0688   201551    0.23%
   8072  3324     7234.2366    50     7245.0000     7228.0688   201552    0.23%
Elapsed time = 5.48 sec. (7910.88 ticks, tree = 1.47 MB, solutions = 20)
   8757  3519        cutoff           7245.0000     7229.8069   223998    0.21%
   8758  3518        cutoff           7245.0000     7229.8075   224110    0.21%
   8759  3517        cutoff           7245.0000     7229.8098   224204    0.21%
   8760  3516    infeasible           7245.0000     7229.8100   224204    0.21%
   8761  3515        cutoff           7245.0000     7229.8126   224314    0.21%
   8762  3514        cutoff           7245.0000     7229.8157   224460    0.21%
   8763  3514     7236.2976    46     7245.0000     7229.8162   224571    0.21%
   8764  3515     7237.8929    48     7245.0000     7229.8162   224590    0.21%
   8765  3516     7237.8930    45     7245.0000     7229.8162   224593    0.21%
   8766  3517     7244.0000    21     7245.0000     7229.8162   224697    0.21%
Elapsed time = 6.10 sec. (8890.08 ticks, tree = 1.60 MB, solutions = 20)
   9564  3683        cutoff           7245.0000     7231.4813   247337    0.19%
   9565  3682        cutoff           7245.0000     7231.4866   247389    0.19%
   9566  3681    infeasible           7245.0000     7231.4866   247389    0.19%
   9567  3680        cutoff           7245.0000     7231.4873   247405    0.19%
   9568  3679        cutoff           7245.0000     7231.4944   247447    0.19%
   9569  3680     7234.9567    33     7245.0000     7231.5076   247496    0.19%
   9570  3681     7241.0516    27     7245.0000     7231.5076   247543    0.19%
   9571  3680        cutoff           7245.0000     7231.5076   247564    0.19%
   9572  3679        cutoff           7245.0000     7231.5076   247571    0.19%
  11392  3798     7238.0672    36     7245.0000     7234.7145   301680    0.14%
Elapsed time = 8.91 sec. (12758.27 ticks, tree = 1.70 MB, solutions = 20)
  16417  2057        cutoff           7245.0000     7240.4372   400682    0.06%
  16418  2056        cutoff           7245.0000     7240.4386   400695    0.06%
  16419  2057     7241.1223    34     7245.0000     7240.4390   400715    0.06%
  16420  2056        cutoff           7245.0000     7240.4390   400748    0.06%
  16421  2055        cutoff           7245.0000     7240.4390   400755    0.06%
  16422  2054        cutoff           7245.0000     7240.4410   400776    0.06%
  16423  2053        cutoff           7245.0000     7240.4419   400794    0.06%
  16424  2052        cutoff           7245.0000     7240.4430   400807    0.06%
  16425  2051        cutoff           7245.0000     7240.4453   400816    0.06%
  16426  2050        cutoff           7245.0000     7240.4456   400843    0.06%
Elapsed time = 11.37 sec. (16578.44 ticks, tree = 0.93 MB, solutions = 20)

Cover cuts applied:  84
Mixed integer rounding cuts applied:  142
Lift and project cuts applied:  3
Gomory fractional cuts applied:  2

Root node processing (before b&c):
  Real time             =    0.02 sec. (14.97 ticks)
Sequential b&c:
  Real time             =   12.05 sec. (17598.65 ticks)
                          ------------
Total (root+branch&cut) =   12.06 sec. (17613.62 ticks)

Solution pool: 20 solutions saved.

MIP - Integer optimal solution:  Objective =  7.2450000000e+03
Solution time =   12.06 sec.  Iterations = 418506  Nodes = 18629
Deterministic time = 17613.62 ticks  (1460.09 ticks/sec)


Incumbent solution written to file '/tmp/tmpqTtllJ.cplex.sol'.
